
ACE v2.1 

  instance
    name:PyCSP

  Loading variables...

  Loading constraints...

  domains
    types:1  values:24  sizes:[2:12]
  variables
    count:12  arrays:1  degrees:[9:4,10:6,11:2]
  constraints
    count:26  specific:8  groups:2  arities:[4:21,6:3,8:2]
    distribution:[Cardinality:3,ConstraintIntension:18,LexicographicLE:5]
    intStructures:(1,shared:17)
    wck:0.30  cpu:1.14  mem:20M563

  Building solver... 

  solver
    guaranteedAC:true
    wck:0.33  cpu:1.156  mem:22M661

  preprocessing
    revisions:(72,useless=72)  values:24  unsat:false
    wck:0.0  cpu:1.156  mem:22M661

    run0  dpts:-1..11  effs:6  wck:0.00  sols:1

  global
    effs:6  revisions:(209,useless=205)
    stop:REACHED_GOAL  sols:1  sol1Cpu:1.156
    wck:0.35  cpu:1.156  mem:22M815


  Solution 1 in JSON format:
   {
    x: [
     [0, 0, 1, 1],
     [0, 1, 0, 1],
     [0, 1, 1, 0]
    ]
   }

s SATISFIABLE

v <instantiation id='sol1' type='solution'> <list> x[][] </list> <values> 0 0 1 1 0 1 0 1 0 1 1 0 </values> </instantiation>

d WRONG DECISIONS 0
d FOUND SOLUTIONS 1
d INCOMPLETE EXPLORATION

c real time : 1.187
